benchmarks/bfuzz0/12011275436306824403181412816311631.smt2
(set-logic QF_FP)
(declare-const x0 (_ FloatingPoint 11 53))
(declare-const x1 (_ FloatingPoint 11 53))
(declare-const x2 (_ FloatingPoint 11 53))
(declare-const x3 (_ FloatingPoint 11 53))
(declare-const x4 (_ FloatingPoint 11 53))
(declare-const x5 (_ FloatingPoint 11 53))
(declare-const x6 (_ FloatingPoint 11 53))
(declare-const x7 (_ FloatingPoint 11 53))
(declare-const x8 (_ FloatingPoint 11 53))
(declare-const x9 (_ FloatingPoint 11 53))
(declare-const x10 (_ FloatingPoint 11 53))
(declare-const x11 (_ FloatingPoint 11 53))
(declare-const x12 (_ FloatingPoint 11 53))
(declare-const x13 (_ FloatingPoint 11 53))
(assert (fp.eq (fp.mul RNE (fp.add RNE (fp.add RNE x8 x6) (fp.sub RNE x8 x6)) (fp.mul RNE (fp.neg x7) (fp.sub RNE x12 x1))) (fp.div RNE (fp.mul RNE (fp.mul RNE x6 x5) (fp.neg x1)) (fp.neg (fp.sub RNE x10 x9)))))
(assert (fp.gt (fp.mul RNE (fp.neg (fp.add RNE x1 x1)) (fp.add RNE (fp.mul RNE x6 x4) (fp.sub RNE x7 x10))) (fp.neg (fp.mul RNE (fp.mul RNE x13 x13) (fp.mul RNE x5 x1)))))
(check-sat)
