db/data/12011275436306824403181412816311631.z3.out
-------------------
2500.064676209
